(set-info :Origin "This instance was generated by: BanditFuzz-- an RL fuzzer for SMT solvers" )
(set-info :Author "Joe Scott, Fed Mora, Vijay Ganesh" )
(set-info :Contact "Joe Scott, joseph.scott@uwaterloo.ca")
(set-logic QF_BV)
(declare-const bool_0 Bool)
(declare-const bool_1 Bool)
(declare-const bool_2 Bool)
(declare-const bool_3 Bool)
(declare-const bool_4 Bool)
(declare-const bv_0 (_ BitVec 32))
(declare-const bv_1 (_ BitVec 32))
(declare-const bv_2 (_ BitVec 32))
(declare-const bv_3 (_ BitVec 32))
(declare-const bv_4 (_ BitVec 32))
(assert (bvsgt (bvand (bvsub #x7df7dae8  #xaba27fa7 ) (bvadd bv_0 bv_1)) (bvxor (bvsmod bv_0 #x0e12888f ) (bvudiv #xf4cdc5e0  bv_3))))
(assert (bvuge (bvshl (bvnor #x504eeba5  bv_3) (bvsrem bv_3 bv_3)) (bvudiv (bvsub #x6d079022  #x47c0de1e ) (bvand #x2b565baa  #x4c6762d2 ))))
(assert (bvugt (bvsdiv (bvmul #xf254c830  bv_2) (bvurem bv_3 bv_1)) (bvand (bvsdiv bv_3 #x6c7904b8 ) (bvnand #x63e05a79  #x0ef4e330 ))))
(assert (bvsle (bvnand (bvxor bv_0 #x972e22bd ) (bvsub bv_3 bv_1)) (bvurem (bvmul bv_2 #xcf711e1b ) (bvnand #x03f2d03a  #x6e4fecc3 ))))
(assert (bvsle (bvurem (bvxor bv_1 bv_1) (bvnor bv_2 #xc7ea87b0 )) (bvshl (bvsmod bv_1 bv_0) (bvnor #x11f95ff4  bv_4))))
(check-sat)
(exit)
